Geographic Exponential Decay
40 186 66 104 83 178 9 14 110 300 159 119 224 59 144 154 231 294 260 161 185 103 50 308 268 240 116 109 172 125 274 2 171 22 70 281 207 266 137 210 99
p edge 320 511
e 0 138 23.0
e 0 182 1.0
e 0 31 8.0
e 1 286 1.0
e 2 198 22.0
e 2 98 47.0
e 2 141 25.0
e 2 72 72.0
e 2 13 17.0
e 2 251 84.0
e 2 226 75.0
e 2 316 22.0
e 2 51 62.0
e 3 107 2.0
e 3 88 1.0
e 4 306 9.0
e 4 22 67.0
e 4 143 45.0
e 5 221 1.0
e 6 144 21.0
e 7 224 2.0
e 8 143 44.0
e 9 315 28.0
e 9 294 5.0
e 9 80 31.0
e 9 175 8.0
e 9 107 61.0
e 9 67 32.0
e 9 10 59.0
e 9 115 61.0
e 9 273 53.0
e 11 109 27.0
e 12 318 1.0
e 14 295 13.0
e 14 275 3.0
e 14 316 48.0
e 14 214 7.0
e 14 120 21.0
e 14 85 16.0
e 14 206 91.0
e 14 77 82.0
e 14 179 50.0
e 15 252 21.0
e 16 312 2.0
e 16 157 9.0
e 17 95 1.0
e 18 284 23.0
e 18 106 15.0
e 18 208 18.0
e 19 208 2.0
e 20 172 64.0
e 21 237 17.0
e 22 201 30.0
e 22 145 23.0
e 22 123 21.0
e 22 152 8.0
e 22 20 4.0
e 22 248 46.0
e 22 193 34.0
e 22 198 74.0
e 23 191 2.0
e 24 75 19.0
e 24 315 2.0
e 25 222 3.0
e 26 156 1.0
e 27 256 1.0
e 28 4 5.0
e 29 83 95.0
e 29 30 35.0
e 29 209 14.0
e 29 52 18.0
e 29 234 5.0
e 30 5 7.0
e 32 149 1.0
e 33 153 1.0
e 33 90 2.0
e 34 161 2.0
e 35 122 1.0
e 36 192 1.0
e 37 44 2.0
e 38 237 2.0
e 39 90 4.0
e 40 281 83.0
e 41 194 2.0
e 42 186 70.0
e 43 161 72.0
e 45 301 1.0
e 46 209 4.0
e 47 203 13.0
e 47 51 15.0
e 47 50 39.0
e 48 201 1.0
e 49 130 5.0
e 50 248 39.0
e 50 28 62.0
e 50 212 22.0
e 50 141 48.0
e 50 288 79.0
e 50 76 10.0
e 50 87 11.0
e 50 42 9.0
e 53 104 57.0
e 53 76 13.0
e 53 10 5.0
e 54 64 2.0
e 55 298 45.0
e 55 157 17.0
e 55 247 18.0
e 55 65 34.0
e 55 149 12.0
e 56 96 4.0
e 57 158 8.0
e 58 90 5.0
e 59 64 92.0
e 59 259 90.0
e 59 168 44.0
e 59 226 15.0
e 59 206 14.0
e 59 172 25.0
e 59 234 4.0
e 59 79 2.0
e 59 290 75.0
e 60 152 38.0
e 61 24 3.0
e 62 84 1.0
e 63 3 8.0
e 66 6 31.0
e 66 21 4.0
e 66 236 59.0
e 66 133 84.0
e 66 91 45.0
e 66 144 18.0
e 66 300 67.0
e 66 72 98.0
e 66 233 47.0
e 67 25 14.0
e 67 283 6.0
e 68 300 58.0
e 69 309 1.0
e 70 53 9.0
e 70 299 11.0
e 70 205 46.0
e 70 62 15.0
e 70 240 37.0
e 70 181 83.0
e 70 297 45.0
e 70 32 89.0
e 70 287 12.0
e 71 159 59.0
e 73 185 65.0
e 74 295 1.0
e 75 175 8.0
e 75 283 2.0
e 78 56 3.0
e 80 29 36.0
e 81 156 4.0
e 82 221 2.0
e 83 113 6.0
e 83 281 17.0
e 83 35 65.0
e 83 60 72.0
e 83 220 75.0
e 83 219 53.0
e 83 248 71.0
e 83 255 62.0
e 86 210 63.0
e 89 213 1.0
e 92 203 1.0
e 93 124 2.0
e 94 200 2.0
e 97 175 1.0
e 99 219 41.0
e 99 229 9.0
e 99 234 23.0
e 99 11 97.0
e 99 284 27.0
e 99 180 68.0
e 99 182 46.0
e 99 100 94.0
e 99 7 54.0
e 101 93 1.0
e 102 122 41.0
e 102 264 1.0
e 102 30 14.0
e 102 268 10.0
e 102 192 36.0
e 103 105 18.0
e 103 165 25.0
e 103 210 9.0
e 103 8 89.0
e 103 131 32.0
e 103 220 39.0
e 103 101 81.0
e 103 102 2.0
e 103 222 24.0
e 104 86 82.0
e 104 291 30.0
e 104 77 7.0
e 104 190 19.0
e 104 207 71.0
e 104 253 18.0
e 104 9 12.0
e 104 296 56.0
e 106 169 11.0
e 108 151 1.0
e 108 31 8.0
e 109 47 41.0
e 109 291 13.0
e 109 165 41.0
e 109 33 56.0
e 109 210 12.0
e 109 217 90.0
e 109 15 25.0
e 109 133 76.0
e 110 138 70.0
e 110 50 89.0
e 110 210 50.0
e 110 278 29.0
e 110 293 42.0
e 110 12 51.0
e 110 22 99.0
e 110 69 91.0
e 110 51 3.0
e 111 199 6.0
e 112 103 64.0
e 114 309 6.0
e 115 173 6.0
e 116 235 51.0
e 116 132 22.0
e 116 171 96.0
e 116 280 48.0
e 116 65 61.0
e 116 275 83.0
e 116 236 23.0
e 116 207 30.0
e 116 172 96.0
e 117 317 9.0
e 118 66 95.0
e 119 79 19.0
e 119 85 75.0
e 119 34 72.0
e 119 94 85.0
e 119 246 94.0
e 119 223 53.0
e 119 245 49.0
e 119 211 70.0
e 119 84 19.0
e 121 171 74.0
e 125 36 52.0
e 125 154 17.0
e 125 211 16.0
e 125 88 86.0
e 125 237 46.0
e 125 112 44.0
e 125 301 29.0
e 125 224 35.0
e 125 142 2.0
e 126 223 2.0
e 127 52 1.0
e 128 108 3.0
e 128 300 5.0
e 129 227 2.0
e 130 109 86.0
e 134 73 5.0
e 135 159 24.0
e 136 256 1.0
e 137 139 38.0
e 137 317 36.0
e 137 87 48.0
e 137 158 15.0
e 137 104 78.0
e 137 169 81.0
e 137 157 56.0
e 137 235 69.0
e 137 61 43.0
e 140 153 2.0
e 143 105 25.0
e 143 196 24.0
e 143 134 3.0
e 144 49 20.0
e 144 300 99.0
e 144 302 75.0
e 144 89 47.0
e 144 311 5.0
e 144 264 45.0
e 144 269 41.0
e 146 125 35.0
e 146 139 5.0
e 147 113 1.0
e 148 299 2.0
e 150 300 7.0
e 152 250 17.0
e 152 257 25.0
e 152 313 1.0
e 154 57 40.0
e 154 26 11.0
e 154 294 18.0
e 154 44 87.0
e 154 2 54.0
e 154 287 85.0
e 154 58 9.0
e 154 114 79.0
e 155 71 1.0
e 159 126 81.0
e 159 37 4.0
e 159 237 37.0
e 159 151 45.0
e 159 41 90.0
e 159 252 45.0
e 159 91 28.0
e 160 293 5.0
e 160 54 6.0
e 161 95 19.0
e 161 158 85.0
e 161 92 23.0
e 161 180 10.0
e 161 83 5.0
e 161 70 9.0
e 161 23 78.0
e 162 163 2.0
e 164 159 68.0
e 166 312 10.0
e 166 292 8.0
e 167 298 2.0
e 167 13 7.0
e 168 229 4.0
e 170 181 1.0
e 171 14 92.0
e 171 123 13.0
e 171 45 75.0
e 171 162 27.0
e 171 274 30.0
e 171 63 72.0
e 171 16 35.0
e 172 168 14.0
e 172 317 44.0
e 172 248 13.0
e 172 119 27.0
e 172 110 99.0
e 172 67 80.0
e 174 80 5.0
e 176 111 1.0
e 177 230 5.0
e 178 96 97.0
e 178 258 83.0
e 178 160 3.0
e 178 40 87.0
e 178 224 94.0
e 178 242 47.0
e 178 261 94.0
e 178 227 98.0
e 178 214 7.0
e 183 150 1.0
e 184 55 20.0
e 185 117 85.0
e 185 242 84.0
e 185 98 4.0
e 185 124 26.0
e 185 166 69.0
e 185 142 46.0
e 185 78 23.0
e 185 188 62.0
e 186 238 17.0
e 186 106 24.0
e 186 140 58.0
e 186 190 86.0
e 186 97 67.0
e 186 282 55.0
e 186 17 49.0
e 186 249 63.0
e 187 27 5.0
e 189 38 2.0
e 195 136 2.0
e 196 161 35.0
e 197 59 40.0
e 199 239 12.0
e 202 68 2.0
e 204 265 2.0
e 207 194 59.0
e 207 39 56.0
e 207 268 16.0
e 207 243 46.0
e 207 239 99.0
e 207 314 7.0
e 207 238 51.0
e 210 294 16.0
e 210 272 98.0
e 210 231 29.0
e 210 257 78.0
e 210 74 55.0
e 212 43 1.0
e 212 46 2.0
e 215 310 1.0
e 216 18 15.0
e 217 303 3.0
e 218 130 3.0
e 224 240 26.0
e 224 137 19.0
e 224 115 68.0
e 224 204 51.0
e 224 273 25.0
e 224 75 40.0
e 225 230 5.0
e 228 152 14.0
e 228 48 23.0
e 228 99 63.0
e 231 163 24.0
e 231 81 64.0
e 231 212 76.0
e 231 82 85.0
e 231 100 14.0
e 231 172 78.0
e 231 19 46.0
e 231 116 46.0
e 232 178 27.0
e 240 264 11.0
e 240 318 41.0
e 240 118 56.0
e 240 183 61.0
e 240 120 33.0
e 240 121 16.0
e 240 200 26.0
e 241 266 15.0
e 244 143 48.0
e 247 266 87.0
e 251 127 9.0
e 252 128 11.0
e 254 184 5.0
e 260 129 61.0
e 260 131 84.0
e 260 132 63.0
e 260 144 79.0
e 260 292 28.0
e 260 135 41.0
e 260 232 14.0
e 260 145 94.0
e 260 146 13.0
e 262 147 11.0
e 262 195 5.0
e 263 176 2.0
e 265 240 12.0
e 266 148 46.0
e 266 276 69.0
e 266 154 93.0
e 266 155 86.0
e 266 164 48.0
e 266 167 33.0
e 266 170 19.0
e 267 179 11.0
e 267 244 1.0
e 268 185 76.0
e 268 255 70.0
e 268 171 12.0
e 268 285 76.0
e 268 210 77.0
e 268 218 59.0
e 268 173 44.0
e 269 213 7.0
e 270 174 1.0
e 271 177 10.0
e 271 186 64.0
e 274 187 34.0
e 274 188 87.0
e 274 189 66.0
e 274 191 12.0
e 274 215 57.0
e 274 193 75.0
e 274 311 17.0
e 274 196 98.0
e 277 285 1.0
e 279 260 56.0
e 281 307 39.0
e 281 197 56.0
e 281 274 32.0
e 281 228 25.0
e 281 257 36.0
e 281 199 2.0
e 281 302 91.0
e 289 216 20.0
e 289 202 14.0
e 289 249 22.0
e 289 304 11.0
e 289 205 34.0
e 290 207 4.0
e 290 217 9.0
e 294 224 80.0
e 294 225 84.0
e 294 230 16.0
e 294 231 58.0
e 294 278 30.0
e 294 233 82.0
e 296 241 18.0
e 296 243 21.0
e 296 258 25.0
e 296 245 31.0
e 300 261 20.0
e 300 246 37.0
e 300 247 36.0
e 300 250 52.0
e 305 251 4.0
e 305 276 10.0
e 308 252 72.0
e 308 253 35.0
e 308 254 25.0
e 308 259 98.0
e 308 286 12.0
e 308 262 27.0
e 308 263 78.0
e 308 265 95.0
e 308 266 49.0
e 319 269 9.0
Geographic Exponential Decay
20 145 9 50 73 224 119 157 51 227 301 44 68 161 34 258 255 251 292 42 218
p edge 320 1152
e 0 214 16.0
e 0 138 9.0
e 0 235 1.0
e 0 318 21.0
e 0 231 13.0
e 0 38 19.0
e 0 33 2.0
e 0 128 7.0
e 0 88 2.0
e 0 111 16.0
e 1 19 10.0
e 1 48 2.0
e 2 123 3.0
e 2 40 3.0
e 3 125 1.0
e 3 49 4.0
e 3 261 3.0
e 4 171 4.0
e 4 159 9.0
e 5 266 6.0
e 5 235 1.0
e 6 81 1.0
e 6 65 1.0
e 7 148 2.0
e 7 118 1.0
e 8 304 3.0
e 8 186 5.0
e 8 134 1.0
e 9 247 15.0
e 9 140 43.0
e 9 65 34.0
e 9 52 65.0
e 9 83 89.0
e 9 4 28.0
e 9 92 57.0
e 9 78 59.0
e 9 209 17.0
e 9 76 66.0
e 9 251 2.0
e 9 265 61.0
e 9 180 58.0
e 9 60 5.0
e 9 32 86.0
e 9 248 85.0
e 9 79 9.0
e 9 84 12.0
e 9 105 71.0
e 9 42 15.0
e 9 80 97.0
e 9 211 80.0
e 9 107 57.0
e 9 111 23.0
e 9 214 77.0
e 9 301 1.0
e 9 93 90.0
e 9 268 81.0
e 9 272 28.0
e 9 57 30.0
e 9 271 35.0
e 9 232 3.0
e 9 179 73.0
e 9 192 86.0
e 9 305 27.0
e 9 81 100.0
e 9 318 21.0
e 10 279 23.0
e 10 249 45.0
e 10 64 23.0
e 10 206 46.0
e 10 85 44.0
e 10 3 26.0
e 10 144 44.0
e 10 224 98.0
e 10 121 19.0
e 10 83 47.0
e 10 197 22.0
e 10 266 19.0
e 10 155 29.0
e 10 241 15.0
e 10 221 39.0
e 10 171 37.0
e 10 183 22.0
e 10 11 22.0
e 10 215 24.0
e 11 40 1.0
e 12 31 3.0
e 12 63 1.0
e 12 56 5.0
e 13 145 45.0
e 13 116 1.0
e 14 33 11.0
e 14 202 11.0
e 14 310 1.0
e 14 0 11.0
e 14 180 5.0
e 15 247 2.0
e 15 193 2.0
e 16 111 3.0
e 16 206 5.0
e 16 26 4.0
e 17 187 5.0
e 17 208 9.0
e 17 253 4.0
e 18 262 18.0
e 18 295 6.0
e 18 203 1.0
e 19 47 4.0
e 19 260 8.0
e 19 153 2.0
e 19 286 11.0
e 20 108 2.0
e 20 80 1.0
e 21 168 1.0
e 21 112 1.0
e 22 315 1.0
e 22 258 75.0
e 23 202 1.0
e 23 247 1.0
e 24 79 2.0
e 24 247 2.0
e 25 28 2.0
e 25 145 73.0
e 26 4 2.0
e 27 225 1.0
e 27 236 1.0
e 27 265 14.0
e 28 42 84.0
e 29 268 1.0
e 29 245 2.0
e 30 225 2.0
e 30 287 1.0
e 31 158 1.0
e 31 168 5.0
e 32 161 69.0
e 33 177 7.0
e 33 312 11.0
e 33 159 6.0
e 34 158 9.0
e 34 44 96.0
e 34 265 52.0
e 34 314 9.0
e 34 75 28.0
e 34 266 63.0
e 34 85 44.0
e 34 89 73.0
e 34 179 90.0
e 34 133 73.0
e 34 184 21.0
e 34 73 39.0
e 34 26 52.0
e 34 247 59.0
e 34 43 64.0
e 34 274 21.0
e 34 198 96.0
e 34 53 86.0
e 34 23 86.0
e 34 297 12.0
e 34 92 20.0
e 34 69 10.0
e 34 248 40.0
e 34 251 83.0
e 34 277 65.0
e 34 84 36.0
e 34 106 11.0
e 34 181 52.0
e 34 263 46.0
e 34 212 78.0
e 34 13 64.0
e 34 76 51.0
e 34 228 50.0
e 34 62 24.0
e 34 216 70.0
e 34 239 35.0
e 34 311 40.0
e 35 295 2.0
e 35 180 2.0
e 36 122 1.0
e 36 203 1.0
e 37 216 2.0
e 37 196 1.0
e 38 44 60.0
e 39 161 23.0
e 39 66 2.0
e 41 167 3.0
e 41 21 1.0
e 41 112 3.0
e 42 80 46.0
e 42 43 11.0
e 42 184 21.0
e 42 181 89.0
e 42 26 92.0
e 42 96 43.0
e 42 110 9.0
e 42 299 77.0
e 42 147 54.0
e 42 308 69.0
e 42 143 29.0
e 42 182 68.0
e 42 157 22.0
e 42 103 52.0
e 42 126 28.0
e 42 134 53.0
e 42 106 99.0
e 42 243 50.0
e 42 7 85.0
e 42 45 48.0
e 42 115 37.0
e 42 313 67.0
e 42 11 25.0
e 42 266 1.0
e 42 311 83.0
e 42 239 24.0
e 42 20 93.0
e 42 190 93.0
e 42 77 95.0
e 42 183 31.0
e 42 102 42.0
e 42 303 43.0
e 42 175 47.0
e 42 52 64.0
e 42 18 15.0
e 43 38 6.0
e 43 293 11.0
e 43 20 11.0
e 44 0 16.0
e 44 213 60.0
e 44 255 97.0
e 44 91 88.0
e 44 11 19.0
e 44 185 14.0
e 44 71 92.0
e 44 24 44.0
e 44 171 15.0
e 44 267 83.0
e 44 265 9.0
e 44 264 79.0
e 44 175 16.0
e 44 122 12.0
e 44 318 22.0
e 44 227 94.0
e 44 315 21.0
e 44 259 45.0
e 44 307 21.0
e 44 316 12.0
e 44 214 80.0
e 44 57 44.0
e 44 231 89.0
e 44 40 44.0
e 44 244 77.0
e 44 254 52.0
e 44 106 39.0
e 44 287 99.0
e 44 235 21.0
e 44 250 15.0
e 44 238 99.0
e 44 92 49.0
e 44 136 26.0
e 44 123 12.0
e 44 295 63.0
e 45 225 2.0
e 46 72 1.0
e 46 227 84.0
e 46 164 2.0
e 47 10 27.0
e 47 268 5.0
e 47 246 4.0
e 47 9 78.0
e 48 64 4.0
e 49 4 3.0
e 49 20 1.0
e 50 250 37.0
e 50 93 90.0
e 50 308 28.0
e 50 184 13.0
e 50 140 34.0
e 50 259 95.0
e 50 104 6.0
e 50 80 63.0
e 50 182 34.0
e 50 141 7.0
e 50 145 21.0
e 50 100 10.0
e 50 284 56.0
e 50 227 92.0
e 50 27 32.0
e 50 272 29.0
e 50 316 62.0
e 50 55 23.0
e 50 235 19.0
e 50 292 35.0
e 50 183 90.0
e 50 315 57.0
e 50 3 21.0
e 50 243 93.0
e 50 64 10.0
e 50 291 23.0
e 50 128 5.0
e 50 313 62.0
e 50 202 94.0
e 50 144 43.0
e 50 68 89.0
e 50 88 62.0
e 50 189 29.0
e 50 309 41.0
e 50 293 2.0
e 50 89 41.0
e 50 185 21.0
e 51 57 89.0
e 51 222 35.0
e 51 226 24.0
e 51 10 17.0
e 51 194 77.0
e 51 156 90.0
e 51 135 35.0
e 51 272 97.0
e 51 136 4.0
e 51 207 56.0
e 51 202 45.0
e 51 232 44.0
e 51 137 48.0
e 51 281 83.0
e 51 276 32.0
e 51 21 62.0
e 51 23 79.0
e 51 103 23.0
e 51 105 10.0
e 51 76 36.0
e 51 125 39.0
e 51 180 72.0
e 51 223 82.0
e 51 65 9.0
e 51 122 29.0
e 51 25 42.0
e 51 183 16.0
e 51 247 79.0
e 51 17 44.0
e 51 32 13.0
e 51 224 10.0
e 51 292 76.0
e 51 149 86.0
e 51 79 87.0
e 51 153 63.0
e 51 33 29.0
e 51 123 50.0
e 53 295 1.0
e 54 5 4.0
e 54 120 2.0
e 54 7 2.0
e 55 169 1.0
e 56 101 4.0
e 58 290 1.0
e 58 155 1.0
e 58 132 12.0
e 59 212 3.0
e 59 297 5.0
e 60 124 4.0
e 60 136 4.0
e 61 252 6.0
e 61 211 8.0
e 61 232 1.0
e 61 213 8.0
e 61 309 4.0
e 62 168 5.0
e 62 128 1.0
e 63 305 2.0
e 66 85 1.0
e 67 153 2.0
e 67 194 2.0
e 68 211 20.0
e 68 214 83.0
e 68 181 7.0
e 68 141 11.0
e 68 306 73.0
e 68 139 39.0
e 68 158 66.0
e 68 63 6.0
e 68 269 2.0
e 68 171 3.0
e 68 123 54.0
e 68 20 99.0
e 68 234 99.0
e 68 317 4.0
e 68 101 63.0
e 68 69 84.0
e 68 246 17.0
e 68 85 12.0
e 68 51 79.0
e 68 153 45.0
e 68 213 41.0
e 68 52 42.0
e 68 34 34.0
e 68 45 13.0
e 68 30 70.0
e 68 53 98.0
e 68 156 67.0
e 68 73 35.0
e 68 280 6.0
e 68 40 33.0
e 68 217 40.0
e 68 268 77.0
e 68 212 90.0
e 68 157 15.0
e 68 259 36.0
e 68 270 42.0
e 70 199 2.0
e 70 127 13.0
e 71 54 1.0
e 72 192 1.0
e 73 159 41.0
e 73 309 89.0
e 73 97 78.0
e 73 192 92.0
e 73 108 31.0
e 73 100 30.0
e 73 247 54.0
e 73 217 19.0
e 73 57 94.0
e 73 74 41.0
e 73 294 76.0
e 73 151 67.0
e 73 258 56.0
e 73 267 96.0
e 73 8 94.0
e 73 76 58.0
e 73 135 35.0
e 73 105 33.0
e 73 45 31.0
e 73 223 25.0
e 73 16 66.0
e 73 86 29.0
e 73 123 89.0
e 73 46 96.0
e 73 118 62.0
e 73 175 72.0
e 73 307 98.0
e 73 211 7.0
e 73 207 45.0
e 73 193 94.0
e 73 229 43.0
e 73 60 65.0
e 73 87 81.0
e 73 84 92.0
e 73 58 58.0
e 74 45 1.0
e 74 277 3.0
e 75 87 10.0
e 75 35 8.0
e 75 223 11.0
e 75 17 8.0
e 76 70 1.0
e 77 12 4.0
e 77 51 66.0
e 78 133 1.0
e 82 137 2.0
e 82 158 1.0
e 82 149 1.0
e 86 171 21.0
e 89 227 54.0
e 90 99 10.0
e 90 159 4.0
e 90 299 1.0
e 91 274 4.0
e 93 154 50.0
e 94 157 66.0
e 94 76 3.0
e 94 0 3.0
e 94 300 7.0
e 94 9 3.0
e 95 258 27.0
e 95 71 3.0
e 95 203 1.0
e 96 208 1.0
e 96 128 7.0
e 96 43 6.0
e 96 305 5.0
e 97 42 48.0
e 98 260 12.0
e 98 11 3.0
e 98 119 15.0
e 99 247 5.0
e 99 26 2.0
e 99 253 9.0
e 99 36 11.0
e 100 96 1.0
e 100 143 11.0
e 100 291 8.0
e 101 103 4.0
e 101 207 1.0
e 101 277 1.0
e 102 137 1.0
e 102 12 1.0
e 103 220 4.0
e 103 213 10.0
e 104 290 2.0
e 107 144 1.0
e 107 61 10.0
e 109 271 5.0
e 109 316 3.0
e 110 21 2.0
e 113 51 45.0
e 113 156 3.0
e 114 129 2.0
e 114 270 1.0
e 115 1 3.0
e 115 264 2.0
e 116 316 2.0
e 117 260 9.0
e 117 160 5.0
e 117 26 4.0
e 119 45 51.0
e 119 160 58.0
e 119 270 46.0
e 119 139 25.0
e 119 110 56.0
e 119 254 52.0
e 119 261 35.0
e 119 297 45.0
e 119 55 10.0
e 119 149 23.0
e 119 68 4.0
e 119 285 50.0
e 119 90 91.0
e 119 181 55.0
e 119 163 93.0
e 119 87 85.0
e 119 198 31.0
e 119 234 59.0
e 119 86 65.0
e 119 186 70.0
e 119 286 91.0
e 119 196 41.0
e 119 65 83.0
e 119 291 8.0
e 119 205 85.0
e 119 4 82.0
e 119 58 27.0
e 119 59 25.0
e 119 78 17.0
e 119 108 29.0
e 119 109 20.0
e 119 46 74.0
e 119 138 2.0
e 119 271 33.0
e 119 235 33.0
e 119 115 46.0
e 120 97 1.0
e 121 24 1.0
e 124 301 42.0
e 124 268 6.0
e 126 165 3.0
e 126 231 1.0
e 127 52 1.0
e 127 251 1.0
e 127 50 37.0
e 127 271 5.0
e 127 317 3.0
e 127 203 24.0
e 127 49 2.0
e 127 300 6.0
e 127 290 37.0
e 127 264 49.0
e 127 40 49.0
e 127 85 34.0
e 127 159 20.0
e 127 248 7.0
e 127 4 28.0
e 127 55 23.0
e 127 288 43.0
e 127 64 16.0
e 129 229 4.0
e 130 232 10.0
e 130 114 4.0
e 130 277 4.0
e 131 144 6.0
e 131 57 2.0
e 131 244 1.0
e 132 276 4.0
e 132 39 2.0
e 132 107 9.0
e 132 275 3.0
e 134 12 2.0
e 140 80 3.0
e 141 125 1.0
e 142 233 8.0
e 142 214 10.0
e 142 44 34.0
e 142 289 18.0
e 142 38 16.0
e 142 79 8.0
e 142 288 9.0
e 142 130 16.0
e 142 71 22.0
e 142 216 21.0
e 143 91 6.0
e 145 300 71.0
e 145 230 40.0
e 145 204 40.0
e 145 131 39.0
e 145 152 48.0
e 145 274 93.0
e 145 81 27.0
e 145 253 7.0
e 145 62 68.0
e 145 34 96.0
e 145 136 58.0
e 145 32 92.0
e 145 182 68.0
e 145 113 15.0
e 145 35 78.0
e 145 189 48.0
e 145 137 26.0
e 145 111 40.0
e 145 31 11.0
e 145 180 93.0
e 145 86 77.0
e 145 36 66.0
e 145 307 95.0
e 145 70 43.0
e 145 119 67.0
e 145 159 8.0
e 145 227 59.0
e 145 286 95.0
e 145 71 18.0
e 145 212 52.0
e 145 37 22.0
e 145 74 83.0
e 145 275 97.0
e 145 39 95.0
e 146 311 2.0
e 146 230 2.0
e 147 83 3.0
e 148 63 1.0
e 150 217 2.0
e 150 208 4.0
e 151 118 2.0
e 152 222 5.0
e 153 239 12.0
e 154 56 7.0
e 154 133 46.0
e 154 171 48.0
e 154 193 16.0
e 154 80 1.0
e 154 279 27.0
e 154 74 15.0
e 154 273 17.0
e 154 163 16.0
e 154 57 32.0
e 154 81 38.0
e 154 126 14.0
e 154 253 48.0
e 154 191 1.0
e 154 301 13.0
e 154 215 45.0
e 154 117 47.0
e 154 309 10.0
e 155 272 6.0
e 156 214 6.0
e 156 42 61.0
e 157 14 46.0
e 157 218 75.0
e 157 0 6.0
e 157 273 61.0
e 157 57 72.0
e 157 198 95.0
e 157 78 54.0
e 157 76 67.0
e 157 298 1.0
e 157 65 5.0
e 157 35 28.0
e 157 158 33.0
e 157 314 7.0
e 157 13 4.0
e 157 241 39.0
e 157 134 89.0
e 157 136 87.0
e 157 254 49.0
e 157 168 44.0
e 157 173 38.0
e 157 295 85.0
e 157 206 59.0
e 157 139 70.0
e 157 212 2.0
e 157 282 83.0
e 157 164 55.0
e 157 274 74.0
e 157 141 90.0
e 157 87 47.0
e 157 207 57.0
e 157 317 46.0
e 157 34 49.0
e 157 3 70.0
e 157 96 73.0
e 161 67 33.0
e 161 156 86.0
e 161 229 35.0
e 161 252 46.0
e 161 110 100.0
e 161 118 4.0
e 161 181 36.0
e 161 199 88.0
e 161 115 69.0
e 161 272 57.0
e 161 238 20.0
e 161 312 84.0
e 161 64 2.0
e 161 226 78.0
e 161 14 25.0
e 161 148 3.0
e 161 275 51.0
e 161 80 49.0
e 161 131 47.0
e 161 287 12.0
e 161 116 51.0
e 161 274 40.0
e 161 310 97.0
e 161 165 13.0
e 161 65 71.0
e 161 206 79.0
e 161 122 4.0
e 161 317 63.0
e 161 31 100.0
e 161 282 22.0
e 161 283 97.0
e 161 182 72.0
e 161 303 2.0
e 161 103 83.0
e 161 138 64.0
e 162 240 2.0
e 162 118 1.0
e 165 50 94.0
e 165 149 9.0
e 165 67 10.0
e 166 157 35.0
e 166 204 1.0
e 167 312 1.0
e 169 266 7.0
e 170 271 22.0
e 170 248 3.0
e 170 74 3.0
e 171 84 22.0
e 171 64 1.0
e 171 81 19.0
e 171 264 4.0
e 172 313 1.0
e 172 30 13.0
e 172 107 19.0
e 172 113 7.0
e 172 289 13.0
e 172 121 17.0
e 172 185 9.0
e 172 171 2.0
e 172 10 41.0
e 172 88 16.0
e 173 212 2.0
e 174 23 2.0
e 174 96 5.0
e 176 23 1.0
e 176 208 6.0
e 177 164 2.0
e 177 288 6.0
e 178 55 2.0
e 178 195 1.0
e 186 58 1.0
e 187 301 67.0
e 188 69 9.0
e 188 85 10.0
e 188 241 10.0
e 188 195 6.0
e 188 228 11.0
e 190 199 2.0
e 191 167 2.0
e 194 114 1.0
e 196 186 3.0
e 197 303 1.0
e 197 126 4.0
e 200 177 5.0
e 200 0 6.0
e 201 138 5.0
e 201 39 3.0
e 201 5 5.0
e 205 173 4.0
e 205 112 4.0
e 208 15 3.0
e 209 89 12.0
e 209 216 17.0
e 209 227 15.0
e 209 105 18.0
e 209 199 20.0
e 209 303 24.0
e 209 63 2.0
e 209 262 5.0
e 209 1 9.0
e 210 208 7.0
e 210 190 1.0
e 210 102 6.0
e 211 35 24.0
e 211 85 16.0
e 211 273 4.0
e 211 177 14.0
e 211 121 21.0
e 211 136 12.0
e 215 239 2.0
e 216 94 3.0
e 218 2 77.0
e 218 127 34.0
e 218 49 30.0
e 218 41 56.0
e 218 204 77.0
e 218 149 77.0
e 218 292 87.0
e 218 99 29.0
e 218 23 94.0
e 218 313 80.0
e 218 285 5.0
e 218 73 22.0
e 218 136 87.0
e 218 164 2.0
e 218 252 10.0
e 218 238 10.0
e 218 257 94.0
e 218 298 63.0
e 218 65 24.0
e 218 68 82.0
e 218 31 43.0
e 218 139 7.0
e 218 83 6.0
e 218 202 16.0
e 218 209 69.0
e 218 98 13.0
e 218 45 80.0
e 218 184 63.0
e 218 190 4.0
e 218 281 1.0
e 218 265 68.0
e 218 105 58.0
e 218 69 88.0
e 218 148 71.0
e 218 168 7.0
e 218 262 34.0
e 219 15 1.0
e 219 143 1.0
e 220 137 4.0
e 221 269 3.0
e 222 291 15.0
e 222 19 6.0
e 222 6 24.0
e 222 86 37.0
e 222 66 1.0
e 222 317 40.0
e 222 105 10.0
e 222 140 44.0
e 222 312 42.0
e 222 249 46.0
e 222 264 25.0
e 222 301 26.0
e 222 155 29.0
e 222 130 2.0
e 222 246 11.0
e 222 87 13.0
e 222 220 44.0
e 224 91 82.0
e 224 204 73.0
e 224 230 35.0
e 224 149 5.0
e 224 187 57.0
e 224 102 74.0
e 224 251 80.0
e 224 260 23.0
e 224 199 17.0
e 224 191 87.0
e 224 243 57.0
e 224 268 91.0
e 224 244 56.0
e 224 169 23.0
e 224 175 62.0
e 224 84 65.0
e 224 35 49.0
e 224 110 24.0
e 224 218 32.0
e 224 174 98.0
e 224 269 97.0
e 224 142 85.0
e 224 58 26.0
e 224 197 47.0
e 224 288 60.0
e 224 232 63.0
e 224 45 81.0
e 224 65 98.0
e 224 299 25.0
e 224 95 38.0
e 224 233 38.0
e 224 117 69.0
e 224 1 34.0
e 224 100 87.0
e 224 71 79.0
e 227 61 35.0
e 227 47 65.0
e 227 70 48.0
e 227 298 71.0
e 227 205 21.0
e 227 131 34.0
e 227 283 28.0
e 227 94 5.0
e 227 164 2.0
e 227 125 60.0
e 227 48 96.0
e 227 56 54.0
e 227 271 40.0
e 227 57 67.0
e 227 313 72.0
e 227 15 15.0
e 227 249 6.0
e 227 268 86.0
e 227 224 60.0
e 227 16 67.0
e 227 292 85.0
e 227 82 19.0
e 227 226 3.0
e 227 310 93.0
e 227 190 17.0
e 227 316 36.0
e 227 72 93.0
e 227 311 19.0
e 227 93 15.0
e 227 64 64.0
e 227 63 32.0
e 236 308 4.0
e 236 40 1.0
e 237 229 1.0
e 237 23 2.0
e 237 169 5.0
e 240 26 2.0
e 242 297 5.0
e 242 317 1.0
e 245 38 1.0
e 250 73 46.0
e 250 60 1.0
e 250 298 10.0
e 251 39 13.0
e 251 126 90.0
e 251 51 1.0
e 251 236 15.0
e 251 287 55.0
e 251 155 28.0
e 251 230 72.0
e 251 225 1.0
e 251 6 59.0
e 251 70 62.0
e 251 2 15.0
e 251 55 57.0
e 251 258 35.0
e 251 38 51.0
e 251 293 14.0
e 251 201 36.0
e 251 107 30.0
e 251 309 98.0
e 251 264 32.0
e 251 173 1.0
e 251 58 97.0
e 251 175 78.0
e 251 110 35.0
e 251 45 71.0
e 251 15 56.0
e 251 105 95.0
e 251 266 60.0
e 251 19 97.0
e 251 152 57.0
e 251 135 30.0
e 251 277 11.0
e 251 29 59.0
e 251 265 7.0
e 255 257 35.0
e 255 21 45.0
e 255 253 12.0
e 255 228 1.0
e 255 127 98.0
e 255 222 46.0
e 255 25 44.0
e 255 291 14.0
e 255 132 41.0
e 255 172 81.0
e 255 194 23.0
e 255 70 8.0
e 255 148 52.0
e 255 42 62.0
e 255 2 45.0
e 255 254 98.0
e 255 28 95.0
e 255 31 86.0
e 255 64 81.0
e 255 220 74.0
e 255 219 6.0
e 255 75 2.0
e 255 53 20.0
e 255 278 32.0
e 255 161 37.0
e 255 140 77.0
e 255 289 95.0
e 255 318 91.0
e 255 153 85.0
e 255 157 46.0
e 255 4 43.0
e 255 78 60.0
e 255 59 23.0
e 255 317 83.0
e 255 52 65.0
e 255 93 15.0
e 256 286 1.0
e 256 95 6.0
e 257 4 2.0
e 258 202 36.0
e 258 98 1.0
e 258 87 52.0
e 258 194 85.0
e 258 174 40.0
e 258 305 24.0
e 258 257 30.0
e 258 171 69.0
e 258 239 64.0
e 258 280 68.0
e 258 273 6.0
e 258 179 38.0
e 258 312 11.0
e 258 105 52.0
e 258 184 27.0
e 258 302 3.0
e 258 196 23.0
e 258 106 70.0
e 258 107 71.0
e 258 175 85.0
e 258 51 84.0
e 258 144 36.0
e 258 68 15.0
e 258 241 11.0
e 258 287 15.0
e 258 45 3.0
e 258 300 79.0
e 258 310 97.0
e 258 282 50.0
e 258 99 52.0
e 258 79 96.0
e 258 261 15.0
e 258 236 36.0
e 260 315 12.0
e 262 228 3.0
e 262 70 10.0
e 262 194 19.0
e 262 315 8.0
e 262 46 6.0
e 262 117 21.0
e 262 73 83.0
e 263 198 2.0
e 265 308 23.0
e 265 138 24.0
e 265 46 14.0
e 265 17 1.0
e 271 203 1.0
e 271 62 24.0
e 271 46 16.0
e 271 126 7.0
e 272 250 5.0
e 272 220 4.0
e 272 28 24.0
e 272 150 2.0
e 272 37 5.0
e 275 133 6.0
e 275 40 9.0
e 278 260 3.0
e 280 99 4.0
e 281 84 5.0
e 283 38 2.0
e 284 238 18.0
e 284 200 17.0
e 284 14 11.0
e 284 209 11.0
e 284 172 8.0
e 284 241 13.0
e 284 163 19.0
e 284 242 10.0
e 284 210 9.0
e 285 304 3.0
e 288 106 2.0
e 292 57 60.0
e 292 174 91.0
e 292 6 23.0
e 292 122 43.0
e 292 294 5.0
e 292 100 90.0
e 292 117 31.0
e 292 58 53.0
e 292 222 73.0
e 292 316 100.0
e 292 84 37.0
e 292 201 27.0
e 292 73 100.0
e 292 93 77.0
e 292 16 22.0
e 292 283 7.0
e 292 260 33.0
e 292 295 74.0
e 292 186 100.0
e 292 278 34.0
e 292 89 83.0
e 292 17 61.0
e 292 126 92.0
e 292 88 16.0
e 292 171 4.0
e 292 223 50.0
e 292 281 5.0
e 292 142 51.0
e 292 106 84.0
e 292 48 24.0
e 292 148 7.0
e 292 240 7.0
e 292 184 27.0
e 296 297 1.0
e 296 39 1.0
e 301 136 89.0
e 301 5 8.0
e 301 73 38.0
e 301 231 67.0
e 301 318 38.0
e 301 12 45.0
e 301 57 22.0
e 301 52 86.0
e 301 139 21.0
e 301 243 74.0
e 301 240 13.0
e 301 284 45.0
e 301 180 79.0
e 301 11 78.0
e 301 67 59.0
e 301 319 20.0
e 301 270 52.0
e 301 238 88.0
e 301 6 45.0
e 301 61 32.0
e 301 264 84.0
e 301 140 90.0
e 301 176 79.0
e 301 265 22.0
e 301 107 2.0
e 301 138 13.0
e 301 94 20.0
e 301 278 95.0
e 301 312 24.0
e 301 290 67.0
e 301 274 21.0
e 301 304 4.0
e 302 158 1.0
e 306 146 2.0
e 319 61 5.0
